(declare-datatypes () ((Nat (succ (pred Nat)) (zero))))
(declare-datatypes () ((Lst (cons (head Nat) (tail Lst)) (nil))))
(declare-datatypes () ((Tree (node (data Nat) (left Tree) (right Tree)) (leaf))))
(declare-datatypes () ((Pair (mkpair (first Nat) (second Nat)))
                       (ZLst (zcons (zhead Pair) (ztail ZLst)) (znil))))
(declare-fun P (Nat) Bool)
(declare-fun f (Nat) Nat)
(declare-fun less (Nat Nat) Bool)
(declare-fun plus (Nat Nat) Nat)
(declare-fun minus (Nat Nat) Nat)
(declare-fun mult (Nat Nat) Nat)
(declare-fun nmax (Nat Nat) Nat)
(declare-fun nmin (Nat Nat) Nat)
(declare-fun append (Lst Lst) Lst)
(declare-fun len (Lst) Nat)
(declare-fun drop (Nat Lst) Lst)
(declare-fun take (Nat Lst) Lst)
(declare-fun count (Nat Lst) Nat)
(declare-fun last (Lst) Nat)
(declare-fun butlast (Lst) Lst)
(declare-fun mem (Nat Lst) Bool)
(declare-fun delete (Nat Lst) Lst)
(declare-fun rev (Lst) Lst)
(declare-fun lmap (Lst) Lst)
(declare-fun filter (Lst) Lst)
(declare-fun dropWhile (Lst) Lst)
(declare-fun takeWhile (Lst) Lst)
(declare-fun ins1 (Nat Lst) Lst)
(declare-fun insort (Nat Lst) Lst)
(declare-fun sorted (Lst) Bool)
(declare-fun sort (Lst) Lst)
(declare-fun zip (Lst Lst) ZLst)
(declare-fun zappend (ZLst ZLst) ZLst)
(declare-fun zdrop (Nat ZLst) ZLst)
(declare-fun ztake (Nat ZLst) ZLst)
(declare-fun zrev (ZLst) ZLst)
(declare-fun mirror (Tree) Tree)
(declare-fun height (Tree) Nat)
(declare-fun eq (Nat Nat) Bool)
(define-fun leq ((x Nat) (y Nat)) Bool (or (= x y) (less x y)))
(assert (eq zero zero))
(assert (forall ((y Nat)) (not (eq zero (succ y)))))
(assert (forall ((x Nat)) (not (eq (succ x) zero))))
(assert (forall ((x Nat) (y Nat)) (= (eq (succ x) (succ y)) (eq x y))))
(assert (forall ((x Nat)) (= (mem x nil) false)))
(assert (forall ((x Nat) (y Nat) (z Lst)) (= (mem x (cons y z)) (or (eq x y) (mem x z)))))
(assert (forall ((i Nat)) (= (ins1 i nil) (cons i nil))))
(assert (forall ((i Nat) (x Nat) (y Lst)) (= (ins1 i (cons x y)) (ite (eq i x) (cons x y) (cons x (ins1 i y))))))
(assert (not 
(forall ((x Nat) (l Lst)) (mem x (ins1 x l))) ; G29 
))
(check-sat)
